p edge 95 186
e 1 2
e 1 3
e 1 4
e 1 6
e 1 8
e 1 10
e 1 11
e 1 12
e 1 14
e 1 15
e 1 18
e 1 19
e 1 20
e 1 21
e 1 23
e 1 24
e 1 26
e 1 29
e 1 33
e 1 37
e 1 39
e 1 45
e 1 46
e 1 48
e 1 51
e 1 58
e 1 61
e 1 62
e 1 69
e 1 72
e 1 78
e 1 79
e 1 87
e 1 89
e 1 92
e 2 4
e 2 5
e 2 7
e 2 8
e 2 9
e 2 16
e 2 18
e 2 22
e 2 28
e 2 29
e 2 44
e 2 46
e 2 50
e 2 66
e 2 68
e 2 76
e 2 79
e 3 5
e 3 17
e 3 42
e 3 58
e 3 80
e 4 9
e 5 6
e 5 7
e 5 13
e 5 14
e 5 16
e 5 17
e 5 19
e 5 20
e 5 24
e 5 31
e 5 37
e 5 41
e 5 54
e 5 63
e 5 65
e 5 70
e 5 75
e 5 81
e 5 84
e 5 87
e 5 88
e 5 94
e 6 12
e 6 13
e 6 23
e 6 25
e 6 31
e 6 34
e 6 35
e 6 40
e 6 43
e 6 63
e 6 68
e 7 10
e 7 30
e 7 32
e 7 38
e 7 51
e 7 56
e 7 61
e 7 83
e 8 60
e 9 11
e 9 15
e 9 21
e 9 27
e 11 33
e 11 52
e 11 59
e 11 86
e 12 62
e 13 38
e 13 85
e 14 27
e 14 41
e 16 47
e 16 48
e 16 74
e 17 22
e 17 34
e 17 44
e 17 50
e 17 69
e 18 39
e 18 47
e 18 53
e 19 52
e 19 55
e 20 25
e 22 26
e 22 35
e 22 76
e 23 43
e 23 77
e 25 28
e 25 36
e 25 73
e 26 36
e 27 30
e 27 65
e 27 66
e 27 85
e 27 92
e 28 45
e 28 57
e 28 91
e 28 93
e 30 32
e 32 40
e 32 56
e 32 57
e 33 82
e 33 83
e 34 49
e 34 60
e 35 59
e 36 72
e 36 90
e 38 42
e 38 54
e 38 82
e 40 71
e 42 94
e 44 49
e 44 81
e 46 64
e 46 70
e 50 53
e 50 55
e 50 77
e 51 67
e 51 73
e 51 89
e 53 64
e 58 71
e 58 86
e 58 95
e 62 67
e 63 88
e 65 80
e 67 74
e 67 75
e 70 78
e 70 90
e 75 84
e 80 91
e 80 93
e 88 95
